p tdp 115 114
68 69
41 113
47 38
38 1
52 57
17 91
20 46
9 33
88 97
99 65
109 102
37 97
9 110
105 31
10 26
13 78
100 58
67 14
24 30
34 79
35 45
65 75
48 8
23 18
37 15
80 86
65 7
82 66
41 70
73 80
55 73
94 85
45 29
28 64
110 65
27 53
95 39
112 84
20 6
11 101
70 14
66 40
83 73
104 111
43 19
7 92
61 95
106 25
29 61
44 115
74 106
96 106
3 104
98 18
42 77
115 57
99 111
2 13
69 1
76 93
104 50
101 114
81 10
90 21
89 108
60 40
20 85
55 58
107 32
56 78
53 91
102 105
49 14
12 22
103 29
1 32
52 40
87 84
22 96
41 64
34 86
4 41
71 113
16 45
5 91
37 66
36 81
23 114
91 72
106 5
100 114
101 85
81 43
110 87
62 72
51 67
70 59
42 92
62 64
24 1
39 54
76 108
105 1
69 41
89 63
8 56
65 66
60 90
4 2
73 13
43 21
17 33
63 45
38 76
